112 9 152 148 165 74 67 41 111 162 131 122 136 110 101 11 59 175 176 30 80 117 26 76 96 190 14 156 85 199 37 108 194 125 71 166 182 115 3 192 135 180 181 46 20 89 124 87 102 174 32 160 195 8 56 38 66 25 90 43 103 128 187 183 132 34 84 168 75 51 193 62 81 61 100 130 16 163 169 170 149 118 12 52 58 95 137 186 68 114 79 64 28 161 73 126 178 47 177 60 155 105 42 133 40 18 197 184 45 154 33 78 153 113 185 127 139 147 196 36 120 44 99 140 119 107 72 123 77 191 157 104 21 50 22 69 53 88 158 82 189 54 172 146 167 98 164 106 144 5 145 0 19 116 1 24 129 86 159 109 143 134 171 150 49 13 97 198 83 92 7 57 15 151 142 65 2 29 63 23 91 27 6 70 93 55 31 4 17 138 94 35 10 188 141 39 48 173 121 179 

